18099
1 0 0 1 0 1 1 0 0 0 1 1 1 0 0 0 0 1 0 1 1 0 0 0 1 0 1 0 1 0 
20 11 20 17 20 5 19 24 28 17 24 20 28 20 3 28 17 17 5 11 19 0 5 3 5 20 19 24 5 24 5 11 6 11 20 20 24 24 0 17 0 20 24 10 24 17 0 20 11 28 5 28 17 5 20 20 17 11 0 17 0 5 20 11 11 11 24 0 5 24 20 6 11 0 24 20 26 20 19 24 20 0 20 17 19 0 0 0 20 5 0 24 0 11 0 5 0 3 11 20 28 0 0 11 19 5 0 11 28 28 0 19 11 11 11 11 24 24 24 24 5 28 11 20 20 0 5 24 11 12 11 11 24 5 28 20 11 5 20 11 11 28 20 11 20 11 11 5 11 5 
